c User generated cnf file
p cnf 8 42
8 -2 3 0 
-5 8 3 0 
-7 4 1 0 
8 -3 3 0 
3 7 -7 0 
2 5 -2 0 
7 3 -7 0 
6 2 -2 0 
-6 5 5 0 
-5 8 1 0 
4 -1 3 0 
8 2 -8 0 
6 8 -1 0 
2 -1 1 0 
3 -6 7 0 
8 5 -8 0 
2 2 -7 0 
3 1 -3 0 
-8 5 8 0 
-1 7 1 0 
4 2 -6 0 
4 2 -2 0 
3 8 -2 0 
3 2 -4 0 
-7 4 3 0 
-1 4 2 0 
3 -7 5 0 
2 -6 7 0 
8 5 -8 0 
7 4 -5 0 
7 -6 4 0 
2 -8 2 0 
6 8 -8 0 
1 -1 3 0 
-3 3 8 0 
-1 8 4 0 
7 5 -8 0 
7 6 -7 0 
4 -5 3 0 
2 5 -5 0 
3 -2 6 0 
5 4 -6 0 
